* ENCODING=ISO-8859-1
NAME          CPLEX
ROWS
 N  obj1    
 G  c1      
 G  c2      
 G  c3      
 G  c4      
 G  c5      
 G  c6      
 G  c7      
 G  c8      
 G  c9      
 G  c10     
 G  c11     
 G  c12     
 G  c13     
 G  c14     
 G  c15     
 G  c16     
 G  c17     
 G  c18     
 G  c19     
 G  c20     
 G  c21     
 G  c22     
 G  c23     
 G  c24     
 G  c25     
 G  c26     
 G  c27     
 G  c28     
 G  c29     
 G  c30     
 G  c31     
 G  c32     
 G  c33     
 G  c34     
 G  c35     
 G  c36     
 G  c37     
 G  c38     
 G  c39     
 G  c40     
 G  c41     
 G  c42     
 G  c43     
 G  c44     
 G  c45     
 G  c46     
 G  c47     
 G  c48     
 G  c49     
 G  c50     
 G  c51     
 G  c52     
 G  c53     
 G  c54     
 G  c55     
 G  c56     
 G  c57     
 G  c58     
 G  c59     
 G  c60     
 G  c61     
 G  c62     
 G  c63     
 G  c64     
 G  c65     
 G  c66     
 G  c67     
 G  c68     
 G  c69     
 G  c70     
COLUMNS
    MARK0000  'MARKER'                 'INTORG'
    x1        obj1                            1
    x1        c15                           749
    x1        c25                           424
    x1        c26                           745
    x1        c47                           781
    x1        c48                           831
    x1        c57                           781
    x1        c59                           856
    x2        obj1                            1
    x2        c16                           439
    x2        c17                           868
    x2        c20                           693
    x2        c27                           943
    x2        c43                           866
    x2        c44                           556
    x2        c51                           401
    x2        c61                           750
    x2        c64                           252
    x3        obj1                            1
    x3        c1                            583
    x3        c10                           267
    x3        c24                           594
    x3        c27                           360
    x3        c29                           580
    x3        c35                           534
    x3        c66                           228
    x4        obj1                            1
    x4        c4                            918
    x4        c9                            633
    x4        c19                           202
    x4        c35                           670
    x4        c40                           501
    x4        c48                           675
    x4        c49                           596
    x4        c50                           320
    x4        c57                           684
    x4        c65                           351
    x5        obj1                            1
    x5        c15                           901
    x5        c27                           992
    x5        c31                           946
    x5        c62                           521
    x5        c63                           631
    x6        obj1                            1
    x6        c8                            297
    x6        c25                           721
    x6        c28                           637
    x6        c30                           704
    x6        c46                           940
    x6        c51                           668
    x6        c54                           853
    x6        c62                           287
    x6        c68                           942
    x7        obj1                            1
    x7        c11                           592
    x7        c16                           882
    x7        c28                           190
    x7        c33                           291
    x7        c53                           280
    x7        c55                           905
    x7        c59                           764
    x7        c61                           540
    x8        obj1                            1
    x8        c3                            284
    x8        c11                           461
    x8        c18                           232
    x8        c19                           513
    x8        c33                           485
    x8        c37                           626
    x8        c61                           973
    x9        obj1                            1
    x9        c2                            778
    x9        c5                            730
    x9        c20                           489
    x9        c23                           626
    x9        c28                           366
    x9        c32                           822
    x9        c40                           427
    x9        c41                           530
    x9        c52                           527
    x9        c69                           714
    x9        c70                           539
    x10       obj1                            1
    x10       c6                            971
    x10       c7                            599
    x10       c52                           358
    x10       c53                           898
    x11       obj1                            1
    x11       c18                           705
    x11       c22                           279
    x11       c29                           286
    x11       c31                           851
    x11       c33                           831
    x11       c58                           212
    x11       c59                           652
    x11       c67                           801
    x12       obj1                            1
    x12       c20                           167
    x12       c48                           562
    x12       c51                           264
    x12       c67                           150
    x13       obj1                            1
    x13       c15                           974
    x13       c28                           825
    x13       c47                           433
    x13       c55                           247
    x14       obj1                            1
    x14       c18                           137
    x14       c26                           777
    x14       c38                           758
    x14       c55                           173
    x14       c65                           688
    x15       obj1                            1
    x15       c3                            866
    x15       c20                           290
    x15       c30                           491
    x15       c48                           414
    x15       c63                           293
    x16       obj1                            1
    x16       c27                           534
    x16       c39                           336
    x16       c45                           694
    x16       c47                           459
    x16       c55                           907
    x16       c59                           289
    x17       obj1                            1
    x17       c5                            198
    x17       c8                            916
    x17       c24                           396
    x17       c29                           467
    x17       c43                           747
    x17       c45                           217
    x17       c51                           216
    x17       c54                           429
    x17       c59                           167
    x17       c64                           834
    x17       c65                           726
    x17       c70                           254
    x18       obj1                            1
    x18       c10                           727
    x18       c11                           422
    x18       c31                           501
    x18       c35                           587
    x18       c37                           268
    x18       c51                           331
    x18       c52                           429
    x18       c58                           447
    x18       c67                           912
    x19       obj1                            1
    x19       c5                            356
    x19       c8                            666
    x19       c11                           228
    x19       c12                           319
    x19       c16                           383
    x19       c19                           490
    x19       c46                           192
    x19       c56                           955
    x20       obj1                            1
    x20       c3                            523
    x20       c7                            887
    x20       c8                            523
    x20       c23                           401
    x20       c26                           727
    x20       c28                           352
    x20       c54                           948
    x20       c57                           976
    x20       c62                           259
    x20       c67                           626
    x20       c69                           607
    x21       obj1                            1
    x21       c10                           386
    x21       c13                           762
    x21       c27                           126
    x21       c30                           624
    x21       c41                           959
    x21       c47                           839
    x21       c48                           515
    x21       c62                           510
    x22       obj1                            1
    x22       c27                           883
    x22       c37                           847
    x22       c64                           582
    x22       c70                           782
    x23       obj1                            1
    x23       c23                           306
    x23       c30                           626
    x23       c46                           566
    x23       c58                           673
    x24       obj1                            1
    x24       c2                            633
    x24       c11                           410
    x24       c46                           341
    x24       c55                           667
    x24       c56                           616
    x25       obj1                            1
    x25       c11                           636
    x25       c14                           871
    x25       c21                           807
    x25       c26                           799
    x25       c31                           244
    x25       c33                           838
    x25       c38                           411
    x25       c43                           716
    x25       c64                           264
    x25       c68                           819
    x26       obj1                            1
    x26       c11                           649
    x26       c56                           319
    x26       c60                           425
    x26       c62                           165
    x27       obj1                            1
    x27       c7                            725
    x27       c26                           585
    x27       c33                           452
    x27       c49                           957
    x27       c53                           632
    x27       c57                           118
    x27       c62                           405
    x27       c65                           667
    x28       obj1                            1
    x28       c8                            178
    x28       c12                           992
    x28       c25                           850
    x28       c26                           195
    x28       c29                           476
    x28       c31                           484
    x28       c35                           881
    x28       c38                           916
    x28       c40                           821
    x29       obj1                            1
    x29       c10                           719
    x29       c19                           931
    x29       c21                           311
    x29       c38                           512
    x29       c42                           677
    x29       c44                           479
    x29       c54                           104
    x29       c68                           677
    x29       c69                           403
    x30       obj1                            1
    x30       c15                           416
    x30       c20                           275
    x30       c27                           942
    x30       c30                           759
    x30       c31                           640
    x30       c49                           585
    x30       c59                           544
    x31       obj1                            1
    x31       c9                            443
    x31       c13                           195
    x31       c14                           921
    x31       c16                           636
    x31       c34                           793
    x32       obj1                            1
    x32       c5                            377
    x32       c23                           163
    x32       c34                           101
    x32       c37                           751
    x32       c59                           390
    x32       c61                           680
    x33       obj1                            1
    x33       c3                            635
    x33       c7                            609
    x33       c38                           741
    x33       c40                           926
    x34       obj1                            1
    x34       c20                           411
    x34       c50                           991
    x34       c66                           542
    x35       obj1                            1
    x35       c5                            971
    x35       c18                           614
    x35       c30                           597
    x35       c47                           463
    x35       c61                           568
    x35       c69                           120
    x36       obj1                            1
    x36       c6                            605
    x36       c10                           937
    x36       c26                           582
    x36       c32                           338
    x36       c55                           753
    x36       c56                           298
    x36       c61                           566
    x36       c63                           912
    x37       obj1                            1
    x37       c4                            980
    x37       c5                            971
    x37       c6                            278
    x37       c20                           762
    x37       c37                           782
    x37       c38                           809
    x37       c40                           815
    x37       c56                           766
    x37       c62                           279
    x37       c65                           259
    x38       obj1                            1
    x38       c29                           490
    x38       c32                           739
    x38       c43                           469
    x38       c46                           446
    x38       c50                           588
    x38       c62                           793
    x39       obj1                            1
    x39       c3                            329
    x39       c14                           976
    x39       c17                           686
    x39       c19                           132
    x39       c27                           365
    x39       c33                           789
    x39       c39                           274
    x39       c65                           499
    x40       obj1                            1
    x40       c38                           797
    x40       c46                           962
    x40       c67                           792
    x40       c69                           617
    x41       obj1                            1
    x41       c1                            117
    x41       c14                           936
    x41       c20                           706
    x41       c35                           132
    x41       c38                           403
    x41       c39                           246
    x41       c54                           658
    x41       c55                           698
    x41       c59                           507
    x41       c63                           666
    x42       obj1                            1
    x42       c12                           509
    x42       c22                           827
    x42       c26                           690
    x42       c32                           755
    x42       c45                           580
    x42       c49                           665
    x42       c61                           109
    x43       obj1                            1
    x43       c1                            525
    x43       c10                           529
    x43       c12                           767
    x43       c38                           905
    x43       c49                           100
    x43       c61                           844
    x44       obj1                            1
    x44       c16                           634
    x44       c28                           312
    x44       c33                           882
    x44       c40                           515
    x44       c58                           951
    x44       c59                           564
    x45       obj1                            1
    x45       c1                            548
    x45       c21                           537
    x45       c31                           819
    x45       c34                           595
    x45       c57                           728
    x46       obj1                            1
    x46       c15                           567
    x46       c34                           119
    x46       c45                           981
    x46       c49                           271
    x46       c50                           460
    x46       c54                           254
    x46       c56                           701
    x47       obj1                            1
    x47       c1                            985
    x47       c22                           136
    x47       c26                           560
    x47       c33                           623
    x47       c43                           450
    x47       c45                           458
    x47       c52                           850
    x47       c61                           121
    x48       obj1                            1
    x48       c35                           672
    x48       c36                           285
    x48       c40                           816
    x48       c45                           671
    x48       c48                           232
    x48       c49                           221
    x48       c68                           772
    x49       obj1                            1
    x49       c8                            316
    x49       c21                           539
    x49       c44                           204
    x49       c53                           335
    x49       c60                           818
    x50       obj1                            1
    x50       c6                            163
    x50       c39                           343
    x50       c44                           299
    x50       c52                           224
    x50       c67                           186
    x51       obj1                            1
    x51       c7                            602
    x51       c17                           866
    x51       c66                           851
    x52       obj1                            1
    x52       c11                           528
    x52       c15                           573
    x52       c23                           384
    x52       c30                           471
    x52       c34                           938
    x52       c40                           451
    x52       c45                           128
    x53       obj1                            1
    x53       c9                            256
    x53       c15                           145
    x53       c26                           756
    x53       c41                           536
    x53       c47                           592
    x53       c56                           841
    x53       c65                           308
    x54       obj1                            1
    x54       c15                           178
    x54       c16                           388
    x54       c17                           926
    x54       c22                           198
    x54       c40                           370
    x54       c45                           460
    x54       c50                           903
    x54       c53                           770
    x54       c63                           752
    x54       c65                           251
    x55       obj1                            1
    x55       c20                           813
    x55       c30                           980
    x55       c44                           462
    x55       c65                           181
    x56       obj1                            1
    x56       c3                            302
    x56       c23                           815
    x56       c30                           164
    x56       c33                           529
    x56       c49                           925
    x56       c50                           200
    x56       c58                           757
    x57       obj1                            1
    x57       c1                            320
    x57       c5                            819
    x57       c13                           974
    x57       c24                           868
    x57       c47                           860
    x57       c51                           793
    x57       c63                           520
    x58       obj1                            1
    x58       c1                            525
    x58       c2                            795
    x58       c10                           720
    x58       c29                           102
    x58       c32                           286
    x58       c34                           217
    x58       c62                           580
    x59       obj1                            1
    x59       c2                            522
    x59       c19                           331
    x59       c36                           761
    x59       c52                           823
    x59       c60                           623
    x59       c67                           374
    x60       obj1                            1
    x60       c8                            566
    x60       c15                           366
    x60       c32                           378
    x60       c44                           761
    x60       c59                           879
    x60       c65                           353
    x61       obj1                            1
    x61       c21                           386
    x61       c22                           122
    x61       c23                           866
    x61       c31                           142
    x61       c43                           989
    x61       c46                           391
    x61       c47                           510
    x61       c48                           139
    x61       c57                           192
    x61       c63                           640
    x61       c68                           428
    x61       c70                           927
    x62       obj1                            1
    x62       c2                            357
    x62       c3                            667
    x62       c4                            821
    x62       c9                            357
    x62       c13                           342
    x62       c16                           503
    x62       c22                           118
    x62       c24                           523
    x62       c42                           698
    x62       c53                           120
    x62       c55                           535
    x62       c58                           535
    x62       c69                           830
    x63       obj1                            1
    x63       c16                           958
    x63       c28                           755
    x63       c30                           723
    x63       c36                           289
    x63       c50                           687
    x63       c55                           475
    x64       obj1                            1
    x64       c3                            195
    x64       c15                           374
    x64       c25                           467
    x64       c42                           639
    x64       c60                           955
    x65       obj1                            1
    x65       c11                           741
    x65       c33                           771
    x65       c45                           192
    x65       c51                           565
    x65       c58                           120
    x66       obj1                            1
    x66       c20                           473
    x66       c23                           703
    x66       c27                           513
    x66       c39                           331
    x66       c45                           375
    x66       c54                           614
    x66       c69                           672
    x67       obj1                            1
    x67       c1                            259
    x67       c10                           908
    x67       c11                           450
    x67       c42                           137
    x67       c48                           339
    x67       c60                           267
    x67       c66                           439
    x68       obj1                            1
    x68       c5                            200
    x68       c6                            508
    x68       c21                           283
    x68       c32                           371
    x68       c39                           427
    x68       c41                           976
    x68       c47                           712
    x68       c69                           298
    x69       obj1                            1
    x69       c3                            503
    x69       c5                            891
    x69       c19                           600
    x69       c25                           471
    x69       c27                           270
    x69       c36                           666
    x70       obj1                            1
    x70       c4                            716
    x70       c7                            546
    x70       c12                           524
    x70       c19                           466
    x70       c22                           137
    x70       c43                           104
    x70       c44                           714
    x70       c55                           347
    x70       c67                           637
    MARK0001  'MARKER'                 'INTEND'
RHS
    rhs       c1                           1931
    rhs       c2                           1543
    rhs       c3                           2152
    rhs       c4                           1718
    rhs       c5                           2757
    rhs       c6                           1263
    rhs       c7                           1984
    rhs       c8                           1731
    rhs       c9                            845
    rhs       c10                          2597
    rhs       c11                          2559
    rhs       c12                          1556
    rhs       c13                          1137
    rhs       c14                          1852
    rhs       c15                          2622
    rhs       c16                          2412
    rhs       c17                          1673
    rhs       c18                           844
    rhs       c19                          1833
    rhs       c20                          2540
    rhs       c21                          1432
    rhs       c22                           909
    rhs       c23                          2132
    rhs       c24                          1191
    rhs       c25                          1467
    rhs       c26                          3208
    rhs       c27                          2964
    rhs       c28                          1719
    rhs       c29                          1201
    rhs       c30                          3070
    rhs       c31                          2314
    rhs       c32                          1845
    rhs       c33                          3246
    rhs       c34                          1382
    rhs       c35                          1738
    rhs       c36                          1001
    rhs       c37                          1637
    rhs       c38                          3126
    rhs       c39                           979
    rhs       c40                          2821
    rhs       c41                          1501
    rhs       c42                          1076
    rhs       c43                          2171
    rhs       c44                          1738
    rhs       c45                          2378
    rhs       c46                          1919
    rhs       c47                          2825
    rhs       c48                          1854
    rhs       c49                          2160
    rhs       c50                          2075
    rhs       c51                          1619
    rhs       c52                          1606
    rhs       c53                          1518
    rhs       c54                          1930
    rhs       c55                          2854
    rhs       c56                          2248
    rhs       c57                          1740
    rhs       c58                          1848
    rhs       c59                          2806
    rhs       c60                          1544
    rhs       c61                          2576
    rhs       c62                          1900
    rhs       c63                          2207
    rhs       c64                           966
    rhs       c65                          2142
    rhs       c66                          1030
    rhs       c67                          2239
    rhs       c68                          1819
    rhs       c69                          2131
    rhs       c70                          1251
BOUNDS
 LI bnd       x1        0
 LI bnd       x2        0
 LI bnd       x3        0
 LI bnd       x4        0
 LI bnd       x5        0
 LI bnd       x6        0
 LI bnd       x7        0
 LI bnd       x8        0
 LI bnd       x9        0
 LI bnd       x10       0
 LI bnd       x11       0
 LI bnd       x12       0
 LI bnd       x13       0
 LI bnd       x14       0
 LI bnd       x15       0
 LI bnd       x16       0
 LI bnd       x17       0
 LI bnd       x18       0
 LI bnd       x19       0
 LI bnd       x20       0
 LI bnd       x21       0
 LI bnd       x22       0
 LI bnd       x23       0
 LI bnd       x24       0
 LI bnd       x25       0
 LI bnd       x26       0
 LI bnd       x27       0
 LI bnd       x28       0
 LI bnd       x29       0
 LI bnd       x30       0
 LI bnd       x31       0
 LI bnd       x32       0
 LI bnd       x33       0
 LI bnd       x34       0
 LI bnd       x35       0
 LI bnd       x36       0
 LI bnd       x37       0
 LI bnd       x38       0
 LI bnd       x39       0
 LI bnd       x40       0
 LI bnd       x41       0
 LI bnd       x42       0
 LI bnd       x43       0
 LI bnd       x44       0
 LI bnd       x45       0
 LI bnd       x46       0
 LI bnd       x47       0
 LI bnd       x48       0
 LI bnd       x49       0
 LI bnd       x50       0
 LI bnd       x51       0
 LI bnd       x52       0
 LI bnd       x53       0
 LI bnd       x54       0
 LI bnd       x55       0
 LI bnd       x56       0
 LI bnd       x57       0
 LI bnd       x58       0
 LI bnd       x59       0
 LI bnd       x60       0
 LI bnd       x61       0
 LI bnd       x62       0
 LI bnd       x63       0
 LI bnd       x64       0
 LI bnd       x65       0
 LI bnd       x66       0
 LI bnd       x67       0
 LI bnd       x68       0
 LI bnd       x69       0
 LI bnd       x70       0
ENDATA
